5 5
2 58 4 89 3 57 0 77 1 68
4 78 2 97 3 92 1 52 0 37
3 8 4 44 0 98 1 5 2 69
1 31 0 45 3 9 2 32 4 33
2 67 3 30 4 76 1 29 0 3
-1
0 3 5
0 1 3 5
0 1 2 3 5
0 2 3 5
0 1 4 5
-2
293 513
80 364 566
9 68 239 287
93 130 223
73 277 208

454 7
16 12 3 9 24
15 23 13 8 4
0 20 6 18 14
10 17 21 2 7
5 1 11 22 19
